(declare-fun e () String)
(declare-fun g () String)
(declare-fun b () String)
(declare-fun d () String)
(declare-fun f () String)
(declare-fun a () String)
(declare-fun h () String)
(assert (= (str.++ e "gd" a a) h))
(assert (= (str.++ "b" d) (str.++ f "cfd")))
(assert (= (str.++ d g h "h") (str.++ "f" g "c" b)))

(check-sat)
